c Result of efficient AIG-to-CNF conversion using package CNF
p cnf 250 766
2 3 -162 0
2 246 3 -14 0
-2 -3 0
-2 -246 162 0
-2 14 162 0
-3 222 4 6 7 0
3 -222 0
3 -7 0
3 -6 0
3 -4 0
-4 223 239 245 5 0
4 -5 0
4 -245 0
4 -223 0
4 -239 0
-5 224 225 226 0
5 -224 0
5 -226 0
5 -225 0
-6 227 228 0
6 -227 0
6 -228 0
-7 231 232 8 9 0
7 -231 0
7 -9 0
7 -8 0
7 -232 0
-8 229 230 0
8 -229 0
8 -230 0
-9 10 11 12 13 0
9 -13 0
9 -10 0
9 -12 0
9 -11 0
-10 240 241 242 0
10 -240 0
10 -242 0
10 -241 0
-11 243 244 0
11 -243 0
11 -244 0
-12 236 237 238 0
12 -236 0
12 -238 0
12 -237 0
-13 233 234 235 0
13 -233 0
13 -235 0
13 -234 0
-14 -15 140 0
-14 17 140 0
-14 -211 140 0
14 -140 0
14 211 15 -17 0
-15 221 16 0
15 -221 0
15 -16 0
-16 218 219 220 0
16 -218 0
16 -220 0
16 -219 0
17 247 -18 0
17 -247 -110 0
-17 -247 110 0
-17 247 18 0
18 248 -19 0
18 -248 -76 0
-18 -248 76 0
-18 248 19 0
19 249 -20 0
19 -249 -50 0
-19 -249 50 0
-19 249 20 0
20 -245 21 -41 0
20 245 21 -26 0
-20 -21 0
-20 -245 41 0
-20 245 26 0
-21 5 6 22 24 0
21 -24 0
21 -5 0
21 -22 0
21 -6 0
-22 239 10 12 23 0
22 -239 0
22 -23 0
22 -12 0
22 -10 0
-23 231 232 8 13 0
23 -231 0
23 -13 0
23 -8 0
23 -232 0
-24 223 11 16 25 0
24 -223 0
24 -25 0
24 -16 0
24 -11 0
-25 221 222 0
25 -221 0
25 -222 0
-26 246 27 0
-26 -246 34 0
26 -246 -34 0
26 246 -27 0
-27 247 31 0
-27 -247 28 0
27 -247 -28 0
27 247 -31 0
28 248 -29 0
28 -248 -30 0
-28 -248 30 0
-28 248 29 0
29 -207 249 0
29 -206 -249 0
-29 207 249 0
-29 206 -249 0
30 -205 249 0
30 -204 -249 0
-30 205 249 0
-30 204 -249 0
31 248 -32 0
31 -248 -33 0
-31 -248 33 0
-31 248 32 0
32 -211 249 0
32 -210 -249 0
-32 211 249 0
-32 210 -249 0
33 -209 249 0
33 -208 -249 0
-33 209 249 0
-33 208 -249 0
34 247 -35 0
34 -247 -38 0
-34 -247 38 0
-34 247 35 0
35 248 -36 0
35 -248 -37 0
-35 -248 37 0
-35 248 36 0
36 -203 249 0
36 -202 -249 0
-36 203 249 0
-36 202 -249 0
37 -201 249 0
37 -200 -249 0
-37 201 249 0
-37 200 -249 0
38 248 -39 0
38 -248 -40 0
-38 -248 40 0
-38 248 39 0
39 -199 249 0
39 -198 -249 0
-39 199 249 0
-39 198 -249 0
40 -197 249 0
40 -196 -249 0
-40 197 249 0
-40 196 -249 0
41 246 -42 0
41 -246 247 -49 0
-41 -246 -247 0
-41 246 42 0
-41 -246 49 0
42 247 -43 0
42 -247 -46 0
-42 -247 46 0
-42 247 43 0
43 248 -44 0
43 -248 -45 0
-43 -248 45 0
-43 248 44 0
44 -195 249 0
44 -194 -249 0
-44 195 249 0
-44 194 -249 0
45 -193 249 0
45 -192 -249 0
-45 193 249 0
-45 192 -249 0
46 248 -47 0
46 -248 -48 0
-46 -248 48 0
-46 248 47 0
47 -191 249 0
47 -190 -249 0
-47 191 249 0
-47 190 -249 0
48 -189 249 0
48 -188 -249 0
-48 189 249 0
-48 188 -249 0
49 -186 248 -249 0
49 -187 248 249 0
-49 -248 0
-49 186 -249 0
-49 187 249 0
50 -245 21 -66 0
50 245 21 -51 0
-50 -21 0
-50 -245 66 0
-50 245 51 0
-51 246 52 0
-51 -246 59 0
51 -246 -59 0
51 246 -52 0
-52 247 56 0
-52 -247 53 0
52 -247 -53 0
52 247 -56 0
53 248 -54 0
53 -248 -55 0
-53 -248 55 0
-53 248 54 0
54 -208 249 0
54 -207 -249 0
-54 208 249 0
-54 207 -249 0
55 -206 249 0
55 -205 -249 0
-55 206 249 0
-55 205 -249 0
56 248 -57 0
56 -248 -58 0
-56 -248 58 0
-56 248 57 0
57 -212 249 0
57 -211 -249 0
-57 212 249 0
-57 211 -249 0
58 -210 249 0
58 -209 -249 0
-58 210 249 0
-58 209 -249 0
59 247 -60 0
59 -247 -63 0
-59 -247 63 0
-59 247 60 0
60 248 -61 0
60 -248 -62 0
-60 -248 62 0
-60 248 61 0
61 -204 249 0
61 -203 -249 0
-61 204 249 0
-61 203 -249 0
62 -202 249 0
62 -201 -249 0
-62 202 249 0
-62 201 -249 0
63 248 -64 0
63 -248 -65 0
-63 -248 65 0
-63 248 64 0
64 -200 249 0
64 -199 -249 0
-64 200 249 0
-64 199 -249 0
65 -198 249 0
65 -197 -249 0
-65 198 249 0
-65 197 -249 0
66 246 -67 0
66 -246 247 -74 0
-66 -246 -247 0
-66 246 67 0
-66 -246 74 0
67 247 -68 0
67 -247 -71 0
-67 -247 71 0
-67 247 68 0
68 248 -69 0
68 -248 -70 0
-68 -248 70 0
-68 248 69 0
69 -196 249 0
69 -195 -249 0
-69 196 249 0
-69 195 -249 0
70 -194 249 0
70 -193 -249 0
-70 194 249 0
-70 193 -249 0
71 248 -72 0
71 -248 -73 0
-71 -248 73 0
-71 248 72 0
72 -192 249 0
72 -191 -249 0
-72 192 249 0
-72 191 -249 0
73 -190 249 0
73 -189 -249 0
-73 190 249 0
-73 189 -249 0
74 248 -75 0
74 -186 -248 249 0
-74 248 75 0
-74 -248 -249 0
-74 186 -248 0
75 -188 249 0
75 -187 -249 0
-75 188 249 0
-75 187 -249 0
76 249 -77 0
76 -249 -94 0
-76 -249 94 0
-76 249 77 0
77 -245 85 0
77 -78 82 85 0
-77 -85 0
-77 245 78 0
-77 245 -82 0
-78 246 -247 81 0
-78 246 247 79 0
78 -246 0
78 -247 -81 0
78 247 -79 0
79 -248 -32 0
79 248 -80 0
-79 248 80 0
-79 -248 32 0
80 -213 249 0
80 -212 -249 0
-80 213 249 0
-80 212 -249 0
81 -248 -29 0
81 248 -33 0
-81 248 33 0
-81 -248 29 0
82 -246 -247 84 0
82 -246 247 83 0
-82 246 0
-82 -247 -84 0
-82 247 -83 0
83 248 -30 0
83 -248 -36 0
-83 -248 36 0
-83 248 30 0
84 248 -37 0
84 -248 -39 0
-84 -248 39 0
-84 248 37 0
-85 223 6 22 86 0
85 -223 0
85 -86 0
85 -22 0
85 -6 0
-86 221 222 11 87 0
86 -221 0
86 -87 0
86 -11 0
86 -222 0
-87 245 5 16 0
-87 5 16 -88 0
87 -16 0
87 -5 0
87 -245 88 0
88 246 -89 0
88 -246 247 -92 0
-88 -246 -247 0
-88 246 89 0
-88 -246 92 0
89 247 -90 0
89 -247 -91 0
-89 -247 91 0
-89 247 90 0
90 248 -40 0
90 -248 -44 0
-90 -248 44 0
-90 248 40 0
91 248 -45 0
91 -248 -47 0
-91 -248 47 0
-91 248 45 0
92 248 -48 0
92 -248 -93 0
-92 -248 93 0
-92 248 48 0
93 -187 249 0
93 -186 -249 0
-93 187 249 0
-93 186 -249 0
94 245 21 -102 0
94 -245 21 -95 0
-94 -21 0
-94 -245 95 0
-94 245 102 0
95 246 -96 0
95 -246 -99 0
-95 -246 99 0
-95 246 96 0
96 247 -97 0
96 -247 -98 0
-96 -247 98 0
-96 247 97 0
97 248 -65 0
97 -248 -69 0
-97 -248 69 0
-97 248 65 0
98 248 -70 0
98 -248 -72 0
-98 -248 72 0
-98 248 70 0
99 247 -100 0
99 -247 -101 0
-99 -247 101 0
-99 247 100 0
100 248 -73 0
100 -248 -75 0
-100 -248 75 0
-100 248 73 0
101 -186 248 249 0
-101 186 0
-101 -249 0
-101 -248 0
102 246 -103 0
102 -246 -107 0
-102 -246 107 0
-102 246 103 0
103 247 -104 0
103 -247 -106 0
-103 -247 106 0
-103 247 104 0
104 -248 -57 0
104 248 -105 0
-104 248 105 0
-104 -248 57 0
105 -214 249 0
105 -213 -249 0
-105 214 249 0
-105 213 -249 0
106 -248 -54 0
106 248 -58 0
-106 248 58 0
-106 -248 54 0
107 247 -108 0
107 -247 -109 0
-107 -247 109 0
-107 247 108 0
108 248 -55 0
108 -248 -61 0
-108 -248 61 0
-108 248 55 0
109 248 -62 0
109 -248 -64 0
-109 -248 64 0
-109 248 62 0
110 248 -111 0
110 -248 -130 0
-110 -248 130 0
-110 248 111 0
111 249 -112 0
111 -249 -121 0
-111 -249 121 0
-111 249 112 0
112 -245 21 -118 0
112 245 21 -113 0
-112 -21 0
-112 -245 118 0
-112 245 113 0
113 246 -114 0
113 -246 -117 0
-113 -246 117 0
-113 246 114 0
114 -247 -31 0
114 247 -115 0
-114 247 115 0
-114 -247 31 0
115 -248 -80 0
115 248 -116 0
-115 248 116 0
-115 -248 80 0
116 -215 249 0
116 -214 -249 0
-116 215 249 0
-116 214 -249 0
117 247 -28 0
117 -247 -35 0
-117 -247 35 0
-117 247 28 0
118 246 -119 0
118 -246 -120 0
-118 -246 120 0
-118 246 119 0
119 247 -38 0
119 -247 -43 0
-119 -247 43 0
-119 247 38 0
120 247 -46 0
120 -247 -49 0
-120 -247 49 0
-120 247 46 0
121 245 21 -125 0
121 -245 21 -122 0
-121 -21 0
-121 -245 122 0
-121 245 125 0
122 246 -123 0
122 -246 -124 0
-122 -246 124 0
-122 246 123 0
123 247 -63 0
123 -247 -68 0
-123 -247 68 0
-123 247 63 0
124 247 -71 0
124 -247 -74 0
-124 -247 74 0
-124 247 71 0
125 246 -126 0
125 -246 -129 0
-125 -246 129 0
-125 246 126 0
126 -247 -56 0
126 247 -127 0
-126 247 127 0
-126 -247 56 0
127 -248 -105 0
127 248 -128 0
-127 248 128 0
-127 -248 105 0
128 -216 249 0
128 -215 -249 0
-128 216 249 0
-128 215 -249 0
129 247 -53 0
129 -247 -60 0
-129 -247 60 0
-129 247 53 0
130 249 -131 0
-130 -249 0
-130 131 0
131 -245 21 -137 0
131 245 21 -132 0
-131 -21 0
-131 -245 137 0
-131 245 132 0
-132 246 133 0
-132 -246 136 0
132 -246 -136 0
132 246 -133 0
-133 -247 79 0
-133 247 134 0
133 -247 -79 0
133 247 -134 0
-134 248 135 0
-134 -248 116 0
134 -248 -116 0
134 248 -135 0
135 -217 249 0
135 -216 -249 0
-135 217 249 0
-135 216 -249 0
136 247 -81 0
136 -247 -83 0
-136 -247 83 0
-136 247 81 0
137 246 -138 0
137 -246 -139 0
-137 -246 139 0
-137 246 138 0
138 247 -84 0
138 -247 -90 0
-138 -247 90 0
-138 247 84 0
139 247 -91 0
139 -247 -92 0
-139 -247 92 0
-139 247 91 0
-140 -15 147 0
-140 141 147 0
-140 -212 147 0
140 -147 0
140 212 15 -141 0
141 247 -142 0
141 -247 -145 0
-141 -247 145 0
-141 247 142 0
142 248 -143 0
142 -248 -144 0
-142 -248 144 0
-142 248 143 0
143 249 -50 0
143 -249 -77 0
-143 -249 77 0
-143 249 50 0
144 249 -94 0
144 -249 -112 0
-144 -249 112 0
-144 249 94 0
145 248 -146 0
-145 -248 0
-145 146 0
146 249 -121 0
146 -249 -131 0
-146 -249 131 0
-146 249 121 0
-147 148 152 0
-147 -15 148 0
-147 -210 148 0
147 -148 0
147 210 15 -152 0
148 -247 149 -151 0
148 247 149 -150 0
-148 -149 0
-148 -247 151 0
-148 247 150 0
-149 213 15 0
149 -213 0
149 -15 0
150 248 -76 0
150 -248 -111 0
-150 -248 111 0
-150 248 76 0
151 248 -130 0
-151 -248 0
-151 130 0
152 247 -153 0
152 -247 -161 0
-152 -247 161 0
-152 247 153 0
153 -248 -143 0
153 248 -154 0
-153 248 154 0
-153 -248 143 0
154 -249 -20 0
154 249 -155 0
-154 249 155 0
-154 -249 20 0
155 -245 21 -159 0
155 245 21 -156 0
-155 -21 0
-155 -245 159 0
-155 245 156 0
-156 246 157 0
-156 -246 158 0
156 -246 -158 0
156 246 -157 0
-157 -247 108 0
-157 247 106 0
157 247 -106 0
157 -247 -108 0
158 -247 -97 0
158 247 -109 0
-158 247 109 0
-158 -247 97 0
159 246 -160 0
159 -246 247 -101 0
-159 -246 -247 0
-159 246 160 0
-159 -246 101 0
160 247 -98 0
160 -247 -100 0
-160 -247 100 0
-160 247 98 0
161 248 -144 0
161 -248 -146 0
-161 -248 146 0
-161 248 144 0
-162 163 176 182 183 0
162 -183 0
162 -182 0
162 -163 0
162 -176 0
-163 164 175 0
-163 -15 164 0
-163 -214 164 0
163 -164 0
163 214 15 -175 0
164 -246 165 -174 0
164 246 165 -166 0
-164 -165 0
-164 -246 174 0
-164 246 166 0
-165 208 15 0
165 -208 0
165 -15 0
166 -247 -142 0
166 247 -167 0
-166 247 167 0
-166 -247 142 0
167 -248 -154 0
167 248 -168 0
-167 248 168 0
-167 -248 154 0
168 -249 -171 0
168 249 21 -169 0
-168 -249 171 0
-168 249 -21 0
-168 249 169 0
-169 -245 -246 0
-169 245 170 0
-169 -245 124 0
169 245 -170 0
169 -245 246 -124 0
-170 246 129 0
-170 -246 123 0
170 -246 -123 0
170 246 -129 0
171 -245 21 -173 0
171 245 21 -172 0
-171 -21 0
-171 -245 173 0
-171 245 172 0
-172 -246 138 0
-172 246 136 0
172 246 -136 0
172 -246 -138 0
173 246 -139 0
-173 -246 0
-173 139 0
174 247 -145 0
-174 -247 0
-174 145 0
175 246 247 -161 0
-175 161 0
-175 -247 0
-175 -246 0
176 -246 177 -181 0
176 246 177 -178 0
-176 -177 0
-176 -246 181 0
-176 246 178 0
-177 209 15 0
177 -209 0
177 -15 0
178 -247 -150 0
178 247 -179 0
-178 247 179 0
-178 -247 150 0
179 -248 -19 0
179 248 -180 0
-179 248 180 0
-179 -248 19 0
180 -249 -155 0
180 249 -171 0
-180 249 171 0
-180 -249 155 0
181 247 -151 0
-181 -247 0
-181 151 0
182 217 246 15 -181 0
-182 -217 0
-182 181 0
-182 -15 0
-182 -246 0
-183 -15 185 0
-183 -215 185 0
-183 184 185 0
183 -185 0
183 215 15 -184 0
184 246 247 -110 0
-184 110 0
-184 -247 0
-184 -246 0
185 216 246 15 -174 0
-185 -216 0
-185 174 0
-185 -15 0
-185 -246 0
-250 0
2 0

